(declare-fun a () Real)
(declare-fun b () Real)
(declare-fun c () Real)
(declare-fun d () Real)
(assert (<= (* a (+ 24.0 (* (ite (> 5.0 d) (* a (+ 24.0 (* a (+ (- 120.0) (* 240.0 a))))) (* a a)) (+ (- 120.0) (* 240.0 a))))) 2.0))
(assert (= (* b b) (+ 1.0 d)))
(assert (= (* a a) (- d 1.0)))
(assert (= (* c c) d))
(assert (> d 1.0))
(assert (> c 0.0))
(assert (> (/ 5.0 (+ (- 120.0) (* 240.0 a)) (+ (- 120.0) (* 240.0 a)) a) d))
(check-sat)
(declare-fun b () Real)
(declare-fun c () Real)
(assert (<= (* a (+ 24.0 (* (ite (> 5.0 d) (* a (+ 24.0 (* a (+ (- 120.0) (* 240.0 a))))) (* a a)) (+ (- 120.0) (* 240.0 a))))) 2.0))
(assert (= (* b b) (+ 1.0 d)))
(assert (= (* a a) (- d 1.0)))
(assert (= (* c c) d))
(assert (> d 1.0))
(assert (> c 0.0))
(assert (> (/ 5.0 (+ (- 120.0) (* 240.0 a)) (+ (- 120.0) (* 240.0 a)) a) d))
(check-sat)
